solution status: time limit reached
objective value:                         102604.85401
y#1                                                 1 	(obj:5700)
y#2                                                 1 	(obj:5700)
y#3                                                 1 	(obj:5700)
y#4                                                 1 	(obj:5700)
y#5                                                 1 	(obj:5700)
y#6                                                 1 	(obj:5700)
y#7                                                 1 	(obj:5700)
y#8                                                 1 	(obj:5700)
y#9                                                 1 	(obj:5700)
y#10                                                1 	(obj:5700)
y#11                                                1 	(obj:5700)
y#12                                                1 	(obj:5700)
y#14                                                1 	(obj:5700)
y#15                                                1 	(obj:5700)
y#16                                                1 	(obj:5700)
y#18                                                1 	(obj:5700)
y#19                                                1 	(obj:5700)
y#20                                                1 	(obj:5700)
x#1#12                                              1 	(obj:0.04539)
x#2#2                                               1 	(obj:0.00561)
x#3#4                                               1 	(obj:0.01717)
x#4#1                                               1 	(obj:0.01326)
x#5#11                                              1 	(obj:0.03451)
x#6#12                                              1 	(obj:0.05321)
x#7#6                                               1 	(obj:0.01972)
x#8#16                                              1 	(obj:0.0221)
x#9#12                                              1 	(obj:0.02567)
x#10#20                                             1 	(obj:0.03876)
x#11#20                                             1 	(obj:0.01462)
x#12#12                                             1 	(obj:0.01938)
x#13#2                                              1 	(obj:0.03077)
x#14#3                                              1 	(obj:0.03519)
x#15#10                                             1 	(obj:0.03315)
x#16#2                                              1 	(obj:0.03026)
x#17#20                                             1 	(obj:0.01836)
x#18#1                                              1 	(obj:0.01207)
x#19#14                                             1 	(obj:0.02448)
x#20#10                                             1 	(obj:0.00068)
x#21#5                                              1 	(obj:0.01122)
x#22#9                                              1 	(obj:0.03128)
x#23#7                                              1 	(obj:0.01717)
x#24#18                                             1 	(obj:0.02023)
x#25#20                                             1 	(obj:0.02516)
x#26#3                                              1 	(obj:0.00901)
x#27#10                                             1 	(obj:0.03213)
x#28#14                                             1 	(obj:0.03094)
x#29#12                                             1 	(obj:0.04114)
x#30#19                                             1 	(obj:0.02686)
x#31#15                                             1 	(obj:0.01751)
x#32#7                                              1 	(obj:0.02975)
x#33#15                                             1 	(obj:0.02907)
x#34#20                                             1 	(obj:0.02669)
x#35#19                                             1 	(obj:0.03451)
x#36#9                                              1 	(obj:0.01785)
x#37#11                                             1 	(obj:0.03757)
x#38#15                                             1 	(obj:0.01836)
x#39#16                                             1 	(obj:0.02278)
x#40#3                                              1 	(obj:0.0204)
x#41#1                                              1 	(obj:0.01275)
x#42#18                                             1 	(obj:0.02091)
x#43#10                                             1 	(obj:0.01428)
x#44#14                                             1 	(obj:0.02822)
x#45#8                                              1 	(obj:0.00408)
x#46#5                                              1 	(obj:0.02992)
x#47#8                                              1 	(obj:0.04046)
x#48#18                                             1 	(obj:0.01666)
x#49#9                                              1 	(obj:0.02856)
x#50#8                                              1 	(obj:0.03672)
x#51#18                                             1 	(obj:0.00595)
x#52#8                                              1 	(obj:0.01071)
x#53#3                                              1 	(obj:0.0289)
x#54#1                                              1 	(obj:0.01785)
x#55#9                                              1 	(obj:0.03128)
x#56#6                                              1 	(obj:0.01598)
x#57#4                                              1 	(obj:0.03247)
x#58#5                                              1 	(obj:0.01445)
x#59#2                                              1 	(obj:0.04012)
x#60#9                                              1 	(obj:0.01054)
x#61#3                                              1 	(obj:0.01751)
x#62#18                                             1 	(obj:0.03468)
x#63#18                                             1 	(obj:0.02346)
x#64#1                                              1 	(obj:0.00646)
x#65#4                                              1 	(obj:0.01071)
x#66#7                                              1 	(obj:0.03179)
x#67#20                                             1 	(obj:0.02482)
x#68#2                                              1 	(obj:0.03944)
x#69#15                                             1 	(obj:0.02686)
x#70#8                                              1 	(obj:0.00935)
x#71#16                                             1 	(obj:0.01598)
x#72#14                                             1 	(obj:0.05134)
x#73#7                                              1 	(obj:0.03791)
x#74#16                                             1 	(obj:0.00765)
x#75#16                                             1 	(obj:0.01479)
x#76#11                                             1 	(obj:0.02856)
x#77#11                                             1 	(obj:0.03757)
x#78#1                                              1 	(obj:0.00697)
x#79#14                                             1 	(obj:0.03298)
x#80#14                                             1 	(obj:0.04097)
x#81#14                                             1 	(obj:0.02431)
x#82#20                                             1 	(obj:0.0374)
x#83#14                                             1 	(obj:0.02856)
x#84#4                                              1 	(obj:0.00578)
x#85#6                                              1 	(obj:0.03094)
x#86#19                                             1 	(obj:0.0136)
x#87#10                                             1 	(obj:0.0153)
x#88#4                                              1 	(obj:0.05151)
x#89#20                                             1 	(obj:0.03519)
x#90#15                                             1 	(obj:0.01547)
x#91#9                                              1 	(obj:0.02448)
x#92#3                                              1 	(obj:0.00289)
x#93#6                                              1 	(obj:0.01445)
x#94#5                                              1 	(obj:0.01887)
x#95#12                                             1 	(obj:0.03774)
x#96#11                                             1 	(obj:0.04046)
x#97#8                                              1 	(obj:0.03604)
x#98#3                                              1 	(obj:0.04335)
x#99#14                                             1 	(obj:0.03281)
x#100#11                                            1 	(obj:0.01326)
x#101#5                                             1 	(obj:0.00867)
x#102#19                                            1 	(obj:0.02941)
x#103#15                                            1 	(obj:0.01224)
x#104#3                                             1 	(obj:0.00663)
x#105#11                                            1 	(obj:0.03145)
x#106#11                                            1 	(obj:0.02295)
x#107#4                                             1 	(obj:0.01207)
x#108#9                                             1 	(obj:0.02975)
x#109#6                                             1 	(obj:0.02958)
x#110#5                                             1 	(obj:0.01513)
x#111#2                                             1 	(obj:0.03383)
x#112#2                                             1 	(obj:0.02414)
x#113#15                                            1 	(obj:0.00884)
x#114#11                                            1 	(obj:0.02958)
x#115#2                                             1 	(obj:0.02635)
x#116#16                                            1 	(obj:0.01972)
x#117#19                                            1 	(obj:0.02108)
x#118#19                                            1 	(obj:0.04148)
x#119#3                                             1 	(obj:0.01258)
x#120#3                                             1 	(obj:0.02499)
x#121#4                                             1 	(obj:0.04726)
x#122#1                                             1 	(obj:0.01785)
x#123#4                                             1 	(obj:0.06171)
x#124#9                                             1 	(obj:0.03111)
x#125#9                                             1 	(obj:0.00731)
x#126#6                                             1 	(obj:0.00765)
x#127#11                                            1 	(obj:0.04777)
x#128#6                                             1 	(obj:0.01054)
x#129#16                                            1 	(obj:0.00544)
x#130#12                                            1 	(obj:0.04182)
x#131#11                                            1 	(obj:0.03604)
x#132#19                                            1 	(obj:0.0289)
x#133#6                                             1 	(obj:0.00408)
x#134#9                                             1 	(obj:0.03791)
x#135#11                                            1 	(obj:0.00595)
x#136#8                                             1 	(obj:0.03111)
x#137#18                                            1 	(obj:0.00918)
x#138#12                                            1 	(obj:0.02091)
x#139#12                                            1 	(obj:0.04233)
x#140#5                                             1 	(obj:0.0085)
x#141#15                                            1 	(obj:0.01224)
x#142#19                                            1 	(obj:0.01207)
x#143#8                                             1 	(obj:0.01377)
x#144#19                                            1 	(obj:0.00969)
x#145#14                                            1 	(obj:0.04284)
x#146#16                                            1 	(obj:0.01258)
x#147#12                                            1 	(obj:0.03655)
x#148#16                                            1 	(obj:0.01275)
x#149#4                                             1 	(obj:0.05406)
x#150#5                                             1 	(obj:0.00731)
x#151#10                                            1 	(obj:0.01683)
x#152#8                                             1 	(obj:0.03196)
x#153#10                                            1 	(obj:0.01479)
x#154#7                                             1 	(obj:0.03757)
x#155#15                                            1 	(obj:0.02873)
x#156#8                                             1 	(obj:0.02431)
x#157#18                                            1 	(obj:0.02992)
x#158#20                                            1 	(obj:0.01802)
x#159#20                                            1 	(obj:0.02737)
x#160#15                                            1 	(obj:0.01411)
x#161#10                                            1 	(obj:0.06715)
x#162#19                                            1 	(obj:0.02839)
x#163#10                                            1 	(obj:0.01258)
x#164#8                                             1 	(obj:0.02873)
x#165#20                                            1 	(obj:0.0238)
x#166#16                                            1 	(obj:0.01462)
x#167#6                                             1 	(obj:0.03553)
x#168#3                                             1 	(obj:0.02805)
x#169#1                                             1 	(obj:0.00102)
x#170#2                                             1 	(obj:0.03349)
x#171#1                                             1 	(obj:0.00714)
x#172#5                                             1 	(obj:0.01972)
x#173#7                                             1 	(obj:0.05032)
x#174#9                                             1 	(obj:0.02754)
x#175#3                                             1 	(obj:0.01513)
x#176#14                                            1 	(obj:0.01836)
x#177#15                                            1 	(obj:0.01802)
x#178#7                                             1 	(obj:0.03587)
x#179#5                                             1 	(obj:0.02006)
x#180#1                                             1 	(obj:0.01955)
x#181#14                                            1 	(obj:0.04046)
x#182#12                                            1 	(obj:0.04012)
x#183#7                                             1 	(obj:0.02856)
x#184#4                                             1 	(obj:0.00918)
x#185#2                                             1 	(obj:0.02295)
x#186#18                                            1 	(obj:0.01547)
x#187#1                                             1 	(obj:0.01071)
x#188#2                                             1 	(obj:0.034)
x#189#7                                             1 	(obj:0.03094)
x#190#19                                            1 	(obj:0.02669)
x#191#6                                             1 	(obj:0.03961)
x#192#7                                             1 	(obj:0.02754)
x#193#6                                             1 	(obj:0.00816)
x#194#4                                             1 	(obj:0.02091)
x#195#16                                            1 	(obj:0.00629)
x#196#5                                             1 	(obj:0.01173)
x#197#7                                             1 	(obj:0.03774)
x#198#19                                            1 	(obj:0.03961)
x#199#16                                            1 	(obj:0.017)
x#200#10                                            1 	(obj:0.02295)
